%chk=1-2-4-TFB.chk
#p PBE1PBE/6-311++G(d,p) density=current nosymm

1 2 4-DFB SP

0 1
C 1.207257086 0.697130451 -0.000000006
C 1.200244074 -0.693100327 0.000000008
C 0.000082869 -1.377339157 0.000000000
C -1.201044466 -0.680683071 -0.000000006
C -1.218039030 0.701533036 0.000000001
C -0.003132499 1.365432309 0.000000005
H 2.134308966 1.256905480 -0.000000009
H 2.124541735 -1.259020114 0.000000010
F -0.019755917 -2.712423431 -0.000000006
F -2.348076264 -1.358288575 -0.000000002
F -0.009451663 2.705681824 -0.000000002
H -2.156854419 1.241275060 0.000000006

