%chk=1-3-DFB.chk
#p PBE1PBE/6-311++G(d,p) density=current nosymm

1 3-DFB SP

0 1
C 1.197458226 0.691394042 -0.000000001
C 1.211261629 -0.698622471 0.000000000
C -0.002068088 -1.363826134 0.000000001
C -1.218032632 -0.703266758 0.000000000
C -1.182063391 0.680119265 0.000000001
C 0.000621858 1.398396586 0.000000000
H 2.136679320 1.233578600 -0.000000001
H 2.135615483 -1.262987367 0.000000001
H -2.155618193 -1.244428888 -0.000000001
H -0.025888127 2.481080987 0.000000000
F -0.008432955 -2.704712017 0.000000000
F -2.346598622 1.344857337 -0.000000001

