%chk=MFB.chk
#p PBE1PBE/6-311++G(d,p) density=current nosymm

MFB SP

0 1
C 1.203088767 0.691433969 -0.000000002
C 1.212388433 -0.699423868 0.000000000
C 0.000000000 -1.364533025 -0.000000004
C -1.212388433 -0.699423868 0.000000001
C -1.203088767 0.691433969 -0.000000002
C 0.000000000 1.389294679 0.000000002
H 2.144955112 1.229929204 0.000000001
H 2.137135830 -1.264723698 -0.000000001
H -2.137135830 -1.264723698 -0.000000001
H -2.144955112 1.229929204 0.000000001
H 0.000000000 2.473759676 0.000000000
F 0.000000000 -2.709786181 0.000000003

